c description: Graph pigeonhole principle formula on fast_gnp_random_graph(20,10,0.5)
c generator: CNFgen (0.9.0)
c copyright: (C) 2012-2020 Massimo Lauria <massimo.lauria@uniroma1.it>
c url: https://massimolauria.net/cnfgen
c
p cnf 104 539
1 2 3 4 5 0
6 7 8 9 10 11 12 0
13 14 15 16 17 18 0
19 20 21 22 23 24 25 0
26 27 28 29 30 31 0
32 33 34 35 36 37 0
38 39 40 41 42 43 0
44 45 46 47 48 49 50 51 0
52 53 54 55 56 57 0
58 59 60 61 62 0
63 64 65 66 0
67 68 69 70 0
71 72 73 74 75 76 0
77 78 79 80 0
81 82 83 84 0
85 86 87 88 89 0
90 91 0
92 93 94 95 96 97 0
98 99 100 101 102 0
103 104 0
-1 -19 0
-1 -32 0
-1 -38 0
-1 -44 0
-1 -52 0
-1 -85 0
-19 -32 0
-19 -38 0
-19 -44 0
-19 -52 0
-19 -85 0
-32 -38 0
-32 -44 0
-32 -52 0
-32 -85 0
-38 -44 0
-38 -52 0
-38 -85 0
-44 -52 0
-44 -85 0
-52 -85 0
-2 -6 0
-2 -13 0
-2 -20 0
-2 -26 0
-2 -33 0
-2 -39 0
-2 -45 0
-2 -58 0
-2 -63 0
-2 -71 0
-2 -81 0
-2 -92 0
-2 -98 0
-6 -13 0
-6 -20 0
-6 -26 0
-6 -33 0
-6 -39 0
-6 -45 0
-6 -58 0
-6 -63 0
-6 -71 0
-6 -81 0
-6 -92 0
-6 -98 0
-13 -20 0
-13 -26 0
-13 -33 0
-13 -39 0
-13 -45 0
-13 -58 0
-13 -63 0
-13 -71 0
-13 -81 0
-13 -92 0
-13 -98 0
-20 -26 0
-20 -33 0
-20 -39 0
-20 -45 0
-20 -58 0
-20 -63 0
-20 -71 0
-20 -81 0
-20 -92 0
-20 -98 0
-26 -33 0
-26 -39 0
-26 -45 0
-26 -58 0
-26 -63 0
-26 -71 0
-26 -81 0
-26 -92 0
-26 -98 0
-33 -39 0
-33 -45 0
-33 -58 0
-33 -63 0
-33 -71 0
-33 -81 0
-33 -92 0
-33 -98 0
-39 -45 0
-39 -58 0
-39 -63 0
-39 -71 0
-39 -81 0
-39 -92 0
-39 -98 0
-45 -58 0
-45 -63 0
-45 -71 0
-45 -81 0
-45 -92 0
-45 -98 0
-58 -63 0
-58 -71 0
-58 -81 0
-58 -92 0
-58 -98 0
-63 -71 0
-63 -81 0
-63 -92 0
-63 -98 0
-71 -81 0
-71 -92 0
-71 -98 0
-81 -92 0
-81 -98 0
-92 -98 0
-21 -34 0
-21 -40 0
-21 -53 0
-21 -59 0
-21 -72 0
-21 -77 0
-34 -40 0
-34 -53 0
-34 -59 0
-34 -72 0
-34 -77 0
-40 -53 0
-40 -59 0
-40 -72 0
-40 -77 0
-53 -59 0
-53 -72 0
-53 -77 0
-59 -72 0
-59 -77 0
-72 -77 0
-7 -14 0
-7 -35 0
-7 -46 0
-7 -67 0
-7 -73 0
-7 -86 0
-7 -93 0
-7 -99 0
-14 -35 0
-14 -46 0
-14 -67 0
-14 -73 0
-14 -86 0
-14 -93 0
-14 -99 0
-35 -46 0
-35 -67 0
-35 -73 0
-35 -86 0
-35 -93 0
-35 -99 0
-46 -67 0
-46 -73 0
-46 -86 0
-46 -93 0
-46 -99 0
-67 -73 0
-67 -86 0
-67 -93 0
-67 -99 0
-73 -86 0
-73 -93 0
-73 -99 0
-86 -93 0
-86 -99 0
-93 -99 0
-3 -8 0
-3 -27 0
-3 -47 0
-3 -54 0
-3 -60 0
-3 -64 0
-3 -74 0
-3 -82 0
-3 -103 0
-8 -27 0
-8 -47 0
-8 -54 0
-8 -60 0
-8 -64 0
-8 -74 0
-8 -82 0
-8 -103 0
-27 -47 0
-27 -54 0
-27 -60 0
-27 -64 0
-27 -74 0
-27 -82 0
-27 -103 0
-47 -54 0
-47 -60 0
-47 -64 0
-47 -74 0
-47 -82 0
-47 -103 0
-54 -60 0
-54 -64 0
-54 -74 0
-54 -82 0
-54 -103 0
-60 -64 0
-60 -74 0
-60 -82 0
-60 -103 0
-64 -74 0
-64 -82 0
-64 -103 0
-74 -82 0
-74 -103 0
-82 -103 0
-15 -22 0
-15 -36 0
-15 -41 0
-15 -90 0
-15 -94 0
-15 -100 0
-15 -104 0
-22 -36 0
-22 -41 0
-22 -90 0
-22 -94 0
-22 -100 0
-22 -104 0
-36 -41 0
-36 -90 0
-36 -94 0
-36 -100 0
-36 -104 0
-41 -90 0
-41 -94 0
-41 -100 0
-41 -104 0
-90 -94 0
-90 -100 0
-90 -104 0
-94 -100 0
-94 -104 0
-100 -104 0
-4 -9 0
-4 -16 0
-4 -23 0
-4 -28 0
-4 -48 0
-4 -68 0
-4 -75 0
-4 -78 0
-4 -83 0
-4 -87 0
-4 -95 0
-4 -101 0
-9 -16 0
-9 -23 0
-9 -28 0
-9 -48 0
-9 -68 0
-9 -75 0
-9 -78 0
-9 -83 0
-9 -87 0
-9 -95 0
-9 -101 0
-16 -23 0
-16 -28 0
-16 -48 0
-16 -68 0
-16 -75 0
-16 -78 0
-16 -83 0
-16 -87 0
-16 -95 0
-16 -101 0
-23 -28 0
-23 -48 0
-23 -68 0
-23 -75 0
-23 -78 0
-23 -83 0
-23 -87 0
-23 -95 0
-23 -101 0
-28 -48 0
-28 -68 0
-28 -75 0
-28 -78 0
-28 -83 0
-28 -87 0
-28 -95 0
-28 -101 0
-48 -68 0
-48 -75 0
-48 -78 0
-48 -83 0
-48 -87 0
-48 -95 0
-48 -101 0
-68 -75 0
-68 -78 0
-68 -83 0
-68 -87 0
-68 -95 0
-68 -101 0
-75 -78 0
-75 -83 0
-75 -87 0
-75 -95 0
-75 -101 0
-78 -83 0
-78 -87 0
-78 -95 0
-78 -101 0
-83 -87 0
-83 -95 0
-83 -101 0
-87 -95 0
-87 -101 0
-95 -101 0
-10 -24 0
-10 -29 0
-10 -49 0
-10 -55 0
-10 -65 0
-10 -76 0
-10 -79 0
-10 -88 0
-10 -91 0
-10 -96 0
-10 -102 0
-24 -29 0
-24 -49 0
-24 -55 0
-24 -65 0
-24 -76 0
-24 -79 0
-24 -88 0
-24 -91 0
-24 -96 0
-24 -102 0
-29 -49 0
-29 -55 0
-29 -65 0
-29 -76 0
-29 -79 0
-29 -88 0
-29 -91 0
-29 -96 0
-29 -102 0
-49 -55 0
-49 -65 0
-49 -76 0
-49 -79 0
-49 -88 0
-49 -91 0
-49 -96 0
-49 -102 0
-55 -65 0
-55 -76 0
-55 -79 0
-55 -88 0
-55 -91 0
-55 -96 0
-55 -102 0
-65 -76 0
-65 -79 0
-65 -88 0
-65 -91 0
-65 -96 0
-65 -102 0
-76 -79 0
-76 -88 0
-76 -91 0
-76 -96 0
-76 -102 0
-79 -88 0
-79 -91 0
-79 -96 0
-79 -102 0
-88 -91 0
-88 -96 0
-88 -102 0
-91 -96 0
-91 -102 0
-96 -102 0
-5 -11 0
-5 -17 0
-5 -30 0
-5 -42 0
-5 -50 0
-5 -56 0
-5 -61 0
-5 -66 0
-5 -69 0
-5 -80 0
-5 -84 0
-5 -97 0
-11 -17 0
-11 -30 0
-11 -42 0
-11 -50 0
-11 -56 0
-11 -61 0
-11 -66 0
-11 -69 0
-11 -80 0
-11 -84 0
-11 -97 0
-17 -30 0
-17 -42 0
-17 -50 0
-17 -56 0
-17 -61 0
-17 -66 0
-17 -69 0
-17 -80 0
-17 -84 0
-17 -97 0
-30 -42 0
-30 -50 0
-30 -56 0
-30 -61 0
-30 -66 0
-30 -69 0
-30 -80 0
-30 -84 0
-30 -97 0
-42 -50 0
-42 -56 0
-42 -61 0
-42 -66 0
-42 -69 0
-42 -80 0
-42 -84 0
-42 -97 0
-50 -56 0
-50 -61 0
-50 -66 0
-50 -69 0
-50 -80 0
-50 -84 0
-50 -97 0
-56 -61 0
-56 -66 0
-56 -69 0
-56 -80 0
-56 -84 0
-56 -97 0
-61 -66 0
-61 -69 0
-61 -80 0
-61 -84 0
-61 -97 0
-66 -69 0
-66 -80 0
-66 -84 0
-66 -97 0
-69 -80 0
-69 -84 0
-69 -97 0
-80 -84 0
-80 -97 0
-84 -97 0
-12 -18 0
-12 -25 0
-12 -31 0
-12 -37 0
-12 -43 0
-12 -51 0
-12 -57 0
-12 -62 0
-12 -70 0
-12 -89 0
-18 -25 0
-18 -31 0
-18 -37 0
-18 -43 0
-18 -51 0
-18 -57 0
-18 -62 0
-18 -70 0
-18 -89 0
-25 -31 0
-25 -37 0
-25 -43 0
-25 -51 0
-25 -57 0
-25 -62 0
-25 -70 0
-25 -89 0
-31 -37 0
-31 -43 0
-31 -51 0
-31 -57 0
-31 -62 0
-31 -70 0
-31 -89 0
-37 -43 0
-37 -51 0
-37 -57 0
-37 -62 0
-37 -70 0
-37 -89 0
-43 -51 0
-43 -57 0
-43 -62 0
-43 -70 0
-43 -89 0
-51 -57 0
-51 -62 0
-51 -70 0
-51 -89 0
-57 -62 0
-57 -70 0
-57 -89 0
-62 -70 0
-62 -89 0
-70 -89 0